309454.08,14.99,16.42
307536.36,15.08,16.52
316658.89,14.65,16.04
309785.95,14.97,16.4
329782.0,14.06,15.4
303882.94,15.26,16.72
309236.96,15.0,16.43
307994.8,15.06,16.49
330450.5,14.04,15.37
315839.81,14.68,16.08
323195.77,14.35,15.72
318747.55,14.55,15.94
308642.09,15.03,16.46
299691.07,15.48,16.95
310873.01,14.92,16.34
327314.45,14.17,15.52
318026.82,14.58,15.97
321962.59,14.4,15.78
307377.72,15.09,16.53
318277.57,14.57,15.96
